32 d 20 21 27 28 31 0
33 4 1 0 3 5 8 24 11 25 30 0
33 d 3 5 8 0
34 1 0 -26 33 32 9 30 22 7 -14 33 18 12 1 -6 32 25 24 1 29 12 -10 33 32 12 25 1 24 -4 18 19 13 24 12 15 -2 33 12 18 13 0
34 d 33 32 9 30 18 1 25 24 19 13 0
35 4 0 -12 34 10 22 2 23 -6 34 10 11 2 16 17 -4 34 2 11 10 14 15 0
35 d 10 22 2 11 16 17 14 15 0
36 0 34 35 4 6 7 23 12 26 29 0
36 d 34 35 4 6 7 23 12 26 29 0
